;---
; using 8-bit bit-vectors as characters
; check intersection nonemptiness of .Net regexes
; regexA = ^\$?(\d{1,3},?(\d{3},?)*\d{3}(\.\d{0,2})?|\d{1,3}(\.\d{0,2})?|\.(\d{1,2})?)\z
; regexB = ^([A-Z]{2}|[a-z]{2} \d{2} [A-Z]{1,2}|[a-z]{1,2} \d{1,4})?([A-Z]{3}|[a-z]{3} \d{1,4})?\z
;---
(set-info :status unsat)
(set-option :print-success true)
(set-logic QF_BVRE)

(declare-const regexA (RegEx String))
(declare-const regexB (RegEx String))
(declare-const x String)

(assert (= regexA (re.++ (str.to_re "")(re.++ (re.opt (re.range "$" "$"))(re.++ (re.union (re.++ ((_ re.loop 1 3) (re.range "0" "9"))(re.++ (re.opt (re.range "," ","))(re.++ (re.* (re.++ ((_ re.loop 3 3) (re.range "0" "9")) (re.opt (re.range "," ","))))(re.++ ((_ re.loop 3 3) (re.range "0" "9")) (re.opt (re.++ (re.range "." ".") ((_ re.loop 0 2) (re.range "0" "9"))))))))(re.union (re.++ ((_ re.loop 1 3) (re.range "0" "9")) (re.opt (re.++ (re.range "." ".") ((_ re.loop 0 2) (re.range "0" "9"))))) (re.++ (re.range "." ".") (re.opt ((_ re.loop 1 2) (re.range "0" "9")))))) (str.to_re ""))))))

(assert (= regexB (re.++ (str.to_re "")(re.++ (re.opt (re.union ((_ re.loop 2 2) (re.range "A" "Z"))(re.union (re.++ ((_ re.loop 2 2) (re.range "a" "z"))(re.++ (re.range " " " ")(re.++ ((_ re.loop 2 2) (re.range "0" "9"))(re.++ (re.range " " " ") ((_ re.loop 1 2) (re.range "A" "Z")))))) (re.++ ((_ re.loop 1 2) (re.range "a" "z"))(re.++ (re.range " " " ") ((_ re.loop 1 4) (re.range "0" "9")))))))(re.++ (re.opt (re.union ((_ re.loop 3 3) (re.range "A" "Z")) (re.++ ((_ re.loop 3 3) (re.range "a" "z"))(re.++ (re.range " " " ") ((_ re.loop 1 4) (re.range "0" "9")))))) (str.to_re ""))))))

;check that the intersection is nonempty, contains some x
(assert (str.in_re x regexA))
(assert (str.in_re x regexB))
(check-sat)
